c FILE /home/rafael/Documents/HappySet/MIHS/inputs/happygen/output/graph_d_regular_k2_p0.3_v100_20241127_083959.txt
c SOURCE This is a d-regular graph formed for the happy graph colouring problem.
c DESCRIPTION It was generated using the problem generator of Rhyd Lewis
c
c GRAPH STATS
c Seed                             = -1703658892
c Number of Nodes                  = 100
c Number of colours k              = 2
c Number of pre-assignments        = 30
c Degree of all vertices           = 6
c Density                          = 0.0606061
c 
c The degrees of nodes 1 to 100, respectively, are as follows 
c [6, 6, 6, 6, 6, 6, 6, 6, 6, 6, 6, 6, 6, 6, 6, 6, 6, 6, 6, 6, 6, 6, 6, 6, 6, 6, 
c  6, 6, 6, 6, 6, 6, 6, 6, 6, 6, 6, 6, 6, 6, 6, 6, 6, 6, 6, 6, 6, 6, 6, 6, 6, 
c  6, 6, 6, 6, 6, 6, 6, 6, 6, 6, 6, 6, 6, 6, 6, 6, 6, 6, 6, 6, 6, 6, 6, 6, 6, 
c  6, 6, 6, 6, 6, 6, 6, 6, 6, 6, 6, 6, 6, 6, 6, 6, 6, 6, 6, 6, 6, 6, 6, 6] 
c  
p edge 100 300 2
e 1 11
e 1 25
e 1 27
e 1 44
e 1 65
e 1 79
e 2 28
e 2 41
e 2 46
e 2 53
e 2 78
e 2 100
e 3 5
e 3 18
e 3 53
e 3 54
e 3 90
e 3 99
e 4 32
e 4 45
e 4 60
e 4 73
e 4 84
e 4 94
e 5 15
e 5 21
e 5 38
e 5 71
e 5 78
e 6 20
e 6 33
e 6 38
e 6 47
e 6 60
e 6 91
e 7 36
e 7 39
e 7 44
e 7 67
e 7 71
e 7 95
e 8 20
e 8 25
e 8 35
e 8 46
e 8 50
e 8 86
e 9 34
e 9 53
e 9 54
e 9 55
e 9 58
e 9 64
e 10 22
e 10 25
e 10 40
e 10 52
e 10 76
e 10 86
e 11 17
e 11 28
e 11 31
e 11 70
e 11 91
e 12 13
e 12 36
e 12 39
e 12 43
e 12 80
e 12 84
e 13 31
e 13 32
e 13 40
e 13 45
e 13 86
e 14 57
e 14 62
e 14 68
e 14 75
e 14 77
e 14 86
e 15 27
e 15 85
e 15 89
e 15 94
e 15 96
e 16 27
e 16 62
e 16 65
e 16 70
e 16 75
e 16 95
e 17 39
e 17 41
e 17 48
e 17 50
e 17 92
e 18 19
e 18 50
e 18 55
e 18 82
e 18 96
e 19 23
e 19 30
e 19 36
e 19 52
e 19 53
e 20 29
e 20 45
e 20 72
e 20 89
e 21 36
e 21 37
e 21 65
e 21 89
e 21 99
e 22 28
e 22 40
e 22 41
e 22 54
e 22 86
e 23 24
e 23 35
e 23 73
e 23 94
e 23 95
e 24 41
e 24 48
e 24 51
e 24 56
e 24 79
e 25 32
e 25 42
e 25 82
e 26 38
e 26 46
e 26 69
e 26 88
e 26 90
e 26 95
e 27 60
e 27 83
e 27 88
e 28 47
e 28 91
e 28 98
e 29 37
e 29 79
e 29 80
e 29 91
e 29 93
e 30 44
e 30 58
e 30 82
e 30 91
e 30 98
e 31 59
e 31 62
e 31 64
e 31 99
e 32 35
e 32 53
e 32 67
e 33 43
e 33 55
e 33 75
e 33 90
e 33 92
e 34 40
e 34 44
e 34 68
e 34 85
e 34 93
e 35 39
e 35 74
e 35 83
e 36 42
e 36 51
e 37 47
e 37 49
e 37 68
e 37 88
e 38 69
e 38 70
e 38 83
e 39 85
e 39 95
e 40 74
e 40 93
e 41 48
e 41 49
e 42 68
e 42 71
e 42 72
e 42 77
e 43 49
e 43 69
e 43 79
e 43 99
e 44 50
e 44 72
e 45 77
e 45 81
e 45 100
e 46 58
e 46 72
e 46 90
e 47 60
e 47 65
e 47 100
e 48 62
e 48 63
e 48 99
e 49 74
e 49 88
e 49 90
e 50 78
e 50 80
e 51 57
e 51 59
e 51 63
e 51 81
e 52 76
e 52 81
e 52 88
e 52 96
e 53 70
e 54 63
e 54 75
e 54 92
e 55 80
e 55 87
e 55 89
e 56 57
e 56 70
e 56 72
e 56 78
e 56 98
e 57 61
e 57 63
e 57 67
e 58 61
e 58 63
e 58 85
e 59 64
e 59 67
e 59 76
e 59 83
e 60 61
e 60 64
e 61 68
e 61 74
e 61 75
e 62 73
e 62 98
e 63 68
e 64 79
e 64 97
e 65 87
e 65 88
e 66 71
e 66 73
e 66 87
e 66 89
e 66 93
e 66 96
e 67 73
e 67 91
e 69 81
e 69 97
e 69 98
e 70 83
e 71 77
e 71 81
e 72 86
e 73 74
e 74 93
e 75 84
e 76 83
e 76 87
e 76 97
e 77 80
e 77 100
e 78 96
e 78 97
e 79 90
e 80 97
e 81 85
e 82 94
e 82 95
e 82 100
e 84 87
e 84 94
e 84 100
e 85 87
e 89 99
e 92 94
e 92 96
e 92 97
e 93 98
n 1 2
n 2 2
n 5 1
n 25 2
n 34 1
n 40 1
n 42 2
n 45 2
n 49 1
n 50 2
n 52 2
n 53 2
n 56 2
n 57 2
n 58 2
n 60 1
n 63 2
n 64 1
n 69 2
n 73 2
n 75 1
n 76 2
n 87 2
n 89 1
n 90 1
n 91 2
n 95 2
n 96 2
n 99 1
n 100 2
